c File: instances/30_0.05_1.col
c
c Description: Random graph of size 30 vertices and P(0.05) of edges between any two vertices.
p col 30 435
e 2 4
e 2 24
e 2 26
e 3 29
e 4 9
e 4 18
e 5 7
e 5 18
e 5 27
e 6 8
e 6 21
e 8 12
e 8 14
e 8 15
e 9 15
e 9 26
e 10 15
e 10 18
e 11 12
e 11 21
e 11 28
e 11 29
e 14 20
e 15 20
e 16 29
e 19 24
e 24 25